NAME : traveling-santa-2018-prime-paths.29128.tour
COMMENT : Length = 29128
COMMENT : Found by LKH [Keld Helsgaun] Sun Jun 12 19:59:44 2022
TYPE : TOUR
DIMENSION : 100
TOUR_SECTION
1
26
12
22
20
79
70
23
84
97
69
39
32
60
55
76
56
92
49
40
81
17
75
18
4
2
66
46
50
86
34
19
52
80
65
29
61
13
91
90
59
5
71
87
38
36
85
35
9
45
6
44
93
11
78
25
28
82
31
74
88
8
83
3
15
47
57
10
67
30
99
94
53
54
96
16
27
48
73
58
62
21
95
100
24
72
14
41
43
64
77
89
63
68
33
37
98
7
42
51
-1
EOF
